p tw 20 53
0 1
0 9
0 10
0 14
0 15
1 10
1 12
1 5
1 6
1 9
1 13
2 3
2 17
2 16
3 6
3 14
3 15
3 11
3 18
3 16
4 5
4 8
4 6
5 6
5 7
5 14
5 10
5 12
5 16
5 11
6 17
6 8
6 13
6 18
7 13
7 8
8 9
8 18
8 10
9 11
9 18
10 16
10 19
11 14
11 15
11 12
12 13
13 17
13 18
13 19
14 19
15 16
17 19
